;symbolic execution tree
(push)
(assert (le x0 java.lang.String))
(check-sat)
(push)
(assert (le x0 java.lang.String))
(check-sat)
(push)
(assert (le x1 java.lang.String))
(check-sat)
(push)
(assert (le x0 java.lang.String))
(check-sat)
(push)
(assert (le x1 java.lang.String))
(check-sat)
(pop)
(push)
(assert (not (le x1 java.lang.String)))
(check-sat)
(pop)
(push)
(assert (le x3 weka.core.Instance))
(check-sat)
(pop)
(push)
(assert (not (le x3 weka.core.Instance)))
(check-sat)
(pop)
(pop)
(push)
(assert (not (le x0 java.lang.String)))
(check-sat)
(pop)
(push)
(assert (le x0 java.lang.String))
(check-sat)
(push)
(assert (le x0 java.lang.String))
(check-sat)
(pop)
(push)
(assert (not (le x0 java.lang.String)))
(check-sat)
(pop)
(pop)
(push)
(assert (not (le x0 java.lang.String)))
(check-sat)
(pop)
(pop)
(push)
(assert (not (le x1 java.lang.String)))
(check-sat)
(push)
(assert (le x2 weka.core.Instances))
(check-sat)
(push)
(assert (le x0 java.lang.String))
(check-sat)
(pop)
(push)
(assert (not (le x0 java.lang.String)))
(check-sat)
(pop)
(push)
(assert (le x3 java.lang.StringBuilder))
(check-sat)
(pop)
(push)
(assert (not (le x3 java.lang.StringBuilder)))
(check-sat)
(pop)
(pop)
(push)
(assert (not (le x2 weka.core.Instances)))
(check-sat)
(pop)
(push)
(assert (le x1 java.lang.String))
(check-sat)
(pop)
(push)
(assert (not (le x1 java.lang.String)))
(check-sat)
(pop)
(pop)
(push)
(assert (le x0 java.lang.String))
(check-sat)
(push)
(assert (le x1 weka.core.Instances))
(check-sat)
(pop)
(push)
(assert (not (le x1 weka.core.Instances)))
(check-sat)
(pop)
(push)
(assert (le x1 weka.core.Instances))
(check-sat)
(pop)
(push)
(assert (not (le x1 weka.core.Instances)))
(check-sat)
(pop)
(push)
(assert (le x2 java.lang.Boolean))
(check-sat)
(push)
(assert (le x2 java.lang.Boolean))
(check-sat)
(pop)
(push)
(assert (not (le x2 java.lang.Boolean)))
(check-sat)
(pop)
(pop)
(push)
(assert (not (le x2 java.lang.Boolean)))
(check-sat)
(pop)
(pop)
(push)
(assert (not (le x0 java.lang.String)))
(check-sat)
(pop)
(push)
(assert (le x2 weka.core.Instance))
(check-sat)
(push)
(assert (le x1 java.lang.String))
(check-sat)
(pop)
(push)
(assert (not (le x1 java.lang.String)))
(check-sat)
(pop)
(pop)
(push)
(assert (not (le x2 weka.core.Instance)))
(check-sat)
(pop)
(push)
(assert (le x1 java.io.File))
(check-sat)
(pop)
(push)
(assert (not (le x1 java.io.File)))
(check-sat)
(pop)
(push)
(assert (le x2 weka.core.Instances))
(check-sat)
(push)
(assert (le x0 java.lang.String))
(check-sat)
(push)
(assert (le x0 java.lang.String))
(check-sat)
(pop)
(push)
(assert (not (le x0 java.lang.String)))
(check-sat)
(pop)
(pop)
(push)
(assert (not (le x0 java.lang.String)))
(check-sat)
(pop)
(pop)
(push)
(assert (not (le x2 weka.core.Instances)))
(check-sat)
(pop)
(pop)
(push)
(assert (not (le x0 java.lang.String)))
(check-sat)
(pop)
(push)
(assert (le x0 java.lang.String))
(check-sat)
(push)
(assert (le x3 java.lang.StringBuilder))
(check-sat)
(pop)
(push)
(assert (not (le x3 java.lang.StringBuilder)))
(check-sat)
(push)
(assert (le x0 java.lang.String))
(check-sat)
(pop)
(push)
(assert (not (le x0 java.lang.String)))
(check-sat)
(pop)
(pop)
(push)
(assert (le x2 weka.core.AttributeLocator))
(check-sat)
(pop)
(push)
(assert (not (le x2 weka.core.AttributeLocator)))
(check-sat)
(pop)
(push)
(assert (le x1 weka.core.Queue_currencysign_QueueNode))
(check-sat)
(pop)
(push)
(assert (not (le x1 weka.core.Queue_currencysign_QueueNode)))
(check-sat)
(push)
(assert (le x0 java.lang.String))
(check-sat)
(push)
(assert (le x2 weka.core.Instances))
(check-sat)
(pop)
(push)
(assert (not (le x2 weka.core.Instances)))
(check-sat)
(pop)
(push)
(assert (le x1 weka.core.Queue_currencysign_QueueNode))
(check-sat)
(pop)
(push)
(assert (not (le x1 weka.core.Queue_currencysign_QueueNode)))
(check-sat)
(pop)
(pop)
(push)
(assert (not (le x0 java.lang.String)))
(check-sat)
(pop)
(push)
(assert (le x1 weka.core.Queue_currencysign_QueueNode))
(check-sat)
(pop)
(push)
(assert (not (le x1 weka.core.Queue_currencysign_QueueNode)))
(check-sat)
(push)
(assert (le x0 java.lang.String))
(check-sat)
(pop)
(push)
(assert (not (le x0 java.lang.String)))
(check-sat)
(pop)
(pop)
(pop)
(push)
(assert (le x0 java.lang.String))
(check-sat)
(pop)
(push)
(assert (not (le x0 java.lang.String)))
(check-sat)
(pop)
(pop)
(push)
(assert (not (le x0 java.lang.String)))
(check-sat)
(pop)
(push)
(assert (le x1 java.lang.Integer))
(check-sat)
(pop)
(push)
(assert (not (le x1 java.lang.Integer)))
(check-sat)
(push)
(assert (le x1 java.lang.Integer))
(check-sat)
(pop)
(push)
(assert (not (le x1 java.lang.Integer)))
(check-sat)
(pop)
(pop)
(push)
(assert (le x1 weka.core.Instances))
(check-sat)
(pop)
(push)
(assert (not (le x1 weka.core.Instances)))
(check-sat)
(push)
(assert (le x0 java.lang.String))
(check-sat)
(pop)
(push)
(assert (not (le x0 java.lang.String)))
(check-sat)
(pop)
(push)
(assert (le x1 weka.core.Instances))
(check-sat)
(pop)
(push)
(assert (not (le x1 weka.core.Instances)))
(check-sat)
(push)
(assert (le x2 java.awt.AWTKeyStroke))
(check-sat)
(pop)
(push)
(assert (le x2 java.text.DateFormat))
(check-sat)
(pop)
(push)
(assert (le x2 sun.java2d.loops.CompositeType))
(check-sat)
(pop)
(push)
(assert (le x2 java.lang.reflect.Field))
(check-sat)
(pop)
(push)
(assert (le x2 java.lang.StackTraceElement))
(check-sat)
(pop)
(push)
(assert (le x2 javax.print.DocFlavor))
(check-sat)
(pop)
(push)
(assert (le x2 weka.core.Attribute))
(check-sat)
(pop)
(push)
(assert (le x2 java.awt.Insets))
(check-sat)
(pop)
(push)
(assert (le x2 java.awt.image.ColorModel))
(check-sat)
(pop)
(push)
(assert (le x2 java.awt.image.ComponentSampleModel))
(check-sat)
(push)
(assert (le x0 java.lang.String))
(check-sat)
(pop)
(push)
(assert (not (le x0 java.lang.String)))
(check-sat)
(pop)
(pop)
(push)
(assert (le x2 javax.swing.tree.TreePath))
(check-sat)
(pop)
(push)
(assert (le x2 java.awt.geom.Rectangle2D))
(check-sat)
(pop)
(push)
(assert (le x2 weka.gui.CheckBoxList_currencysign_CheckBoxListItem))
(check-sat)
(pop)
(push)
(assert (le x2 java.util.Hashtable))
(check-sat)
(push)
(assert (le x3 weka.core.Instances))
(check-sat)
(pop)
(push)
(assert (not (le x3 weka.core.Instances)))
(check-sat)
(pop)
(pop)
(push)
(assert (le x2 java.awt.AlphaComposite))
(check-sat)
(pop)
(push)
(assert (le x2 java.nio.ByteBuffer))
(check-sat)
(pop)
(push)
(assert (le x2 java.awt.image.SinglePixelPackedSampleModel))
(check-sat)
(pop)
(push)
(assert (le x2 sun.awt.SunHints_currencysign_Value))
(check-sat)
(pop)
(push)
(assert (le x2 java.lang.Long))
(check-sat)
(pop)
(push)
(assert (le x2 weka.estimators.Estimator))
(check-sat)
(push)
(assert (le x2 java.lang.Object))
(check-sat)
(pop)
(push)
(assert (not (le x2 java.lang.Object)))
(check-sat)
(pop)
(pop)
(push)
(assert (le x2 java.text.FieldPosition))
(check-sat)
(pop)
(push)
(assert (le x2 java.lang.reflect.Constructor))
(check-sat)
(push)
(assert (le x0 java.lang.String))
(check-sat)
(pop)
(push)
(assert (not (le x0 java.lang.String)))
(check-sat)
(pop)
(pop)
(push)
(assert (le x2 java.awt.JobAttributes))
(check-sat)
(push)
(assert (le x3 java.util.Vector))
(check-sat)
(pop)
(push)
(assert (not (le x3 java.util.Vector)))
(check-sat)
(pop)
(push)
(assert (le x3 weka.core.Instance))
(check-sat)
(pop)
(push)
(assert (not (le x3 weka.core.Instance)))
(check-sat)
(pop)
(pop)
(push)
(assert (le x2 java.security.Permission))
(check-sat)
(push)
(assert (le x0 java.lang.String))
(check-sat)
(pop)
(push)
(assert (not (le x0 java.lang.String)))
(check-sat)
(pop)
(pop)
(push)
(assert (le x2 java.lang.Float))
(check-sat)
(pop)
(push)
(assert (le x2 java.awt.RenderingHints))
(check-sat)
(pop)
(push)
(assert (le x2 java.lang.Byte))
(check-sat)
(pop)
(push)
(assert (le x2 java.nio.FloatBuffer))
(check-sat)
(pop)
(push)
(assert (le x2 java.text.AttributedCharacterIterator_currencysign_Attribute))
(check-sat)
(push)
(assert (le x2 java.lang.Object))
(check-sat)
(pop)
(push)
(assert (not (le x2 java.lang.Object)))
(check-sat)
(pop)
(push)
(assert (le x0 java.lang.String))
(check-sat)
(pop)
(push)
(assert (not (le x0 java.lang.String)))
(check-sat)
(pop)
(pop)
(push)
(assert (le x2 java.util.AbstractList))
(check-sat)
(push)
(assert (not (le x2 java.util.Vector)))
(check-sat)
(pop)
(pop)
(push)
(assert (le x2 java.lang.Character))
(check-sat)
(pop)
(push)
(assert (le x2 java.util.Date))
(check-sat)
(pop)
(push)
(assert (le x2 java.util.Vector))
(check-sat)
(pop)
(push)
(assert (le x2 java.awt.Dimension))
(check-sat)
(pop)
(push)
(assert (le x2 java.awt.Font))
(check-sat)
(pop)
(push)
(assert (le x2 weka.classifiers.Evaluation))
(check-sat)
(pop)
(push)
(assert (le x2 java.util.AbstractMap))
(check-sat)
(pop)
(push)
(assert (le x2 weka.core.Version))
(check-sat)
(pop)
(push)
(assert (le x2 sun.java2d.loops.SurfaceType))
(check-sat)
(pop)
(push)
(assert (le x2 weka.core.ClassDiscovery_currencysign_StringCompare))
(check-sat)
(pop)
(push)
(assert (le x2 java.awt.DisplayMode))
(check-sat)
(pop)
(push)
(assert (le x2 java.net.URI))
(check-sat)
(pop)
(push)
(assert (le x2 java.awt.datatransfer.DataFlavor))
(check-sat)
(pop)
(push)
(assert (le x2 java.awt.BasicStroke))
(check-sat)
(pop)
(push)
(assert (le x2 java.lang.Boolean))
(check-sat)
(pop)
(push)
(assert (le x2 java.text.NumberFormat))
(check-sat)
(pop)
(push)
(assert (le x2 sun.java2d.pipe.Region))
(check-sat)
(pop)
(push)
(assert (le x2 java.awt.font.FontRenderContext))
(check-sat)
(pop)
(push)
(assert (le x2 java.lang.Double))
(check-sat)
(pop)
(push)
(assert (le x2 weka.core.SerializedObject))
(check-sat)
(pop)
(push)
(assert (le x2 java.lang.Short))
(check-sat)
(pop)
(push)
(assert (le x2 java.nio.IntBuffer))
(check-sat)
(pop)
(push)
(assert (le x2 java.awt.MenuShortcut))
(check-sat)
(pop)
(push)
(assert (le x2 java.awt.Color))
(check-sat)
(pop)
(push)
(assert (le x2 java.awt.font.TextLayout))
(check-sat)
(pop)
(push)
(assert (le x2 java.awt.geom.AffineTransform))
(check-sat)
(pop)
(push)
(assert (le x2 java.lang.String))
(check-sat)
(pop)
(push)
(assert (le x2 java.nio.charset.Charset))
(check-sat)
(pop)
(push)
(assert (le x2 java.awt.RenderingHints_currencysign_Key))
(check-sat)
(pop)
(push)
(assert (le x2 java.awt.geom.Ellipse2D))
(check-sat)
(pop)
(push)
(assert (le x2 java.util.AbstractSet))
(check-sat)
(pop)
(push)
(assert (le x2 weka.core.AttributeLocator))
(check-sat)
(pop)
(push)
(assert (le x2 java.lang.reflect.Method))
(check-sat)
(pop)
(push)
(assert (le x2 java.awt.geom.RoundRectangle2D))
(check-sat)
(pop)
(push)
(assert (le x2 java.beans.PropertyDescriptor))
(check-sat)
(pop)
(push)
(assert (le x2 java.net.URL))
(check-sat)
(pop)
(push)
(assert (le x2 java.awt.geom.Arc2D))
(check-sat)
(pop)
(push)
(assert (le x2 java.text.DecimalFormatSymbols))
(check-sat)
(pop)
(push)
(assert (le x2 java.util.Locale))
(check-sat)
(pop)
(push)
(assert (le x2 java.lang.Character_currencysign_Subset))
(check-sat)
(pop)
(push)
(assert (le x2 java.lang.Enum))
(check-sat)
(pop)
(push)
(assert (le x2 weka.core.SelectedTag))
(check-sat)
(pop)
(push)
(assert (le x2 apple.awt.NSPrintInfo))
(check-sat)
(pop)
(push)
(assert (le x2 java.lang.Integer))
(check-sat)
(pop)
(push)
(assert (le x2 java.io.File))
(check-sat)
(pop)
(push)
(assert (le x2 java.nio.LongBuffer))
(check-sat)
(pop)
(push)
(assert (le x2 java.awt.font.TextHitInfo))
(check-sat)
(pop)
(push)
(assert (le x2 javax.xml.namespace.QName))
(check-sat)
(pop)
(push)
(assert (le x2 java.awt.geom.Point2D))
(check-sat)
(pop)
(push)
(assert (not (le x2 weka.estimators.Estimator)))
(check-sat)
(push)
(assert (not (le x2 java.text.FieldPosition)))
(check-sat)
(push)
(assert (not (le x2 sun.awt.SunHints_currencysign_Value)))
(check-sat)
(push)
(assert (not (le x2 java.awt.AlphaComposite)))
(check-sat)
(push)
(assert (not (le x2 weka.gui.CheckBoxList_currencysign_CheckBoxListItem)))
(check-sat)
(push)
(assert (not (le x2 javax.swing.tree.TreePath)))
(check-sat)
(push)
(assert (not (le x2 java.awt.Insets)))
(check-sat)
(push)
(assert (not (le x2 java.awt.image.ColorModel)))
(check-sat)
(push)
(assert (not (le x2 javax.print.DocFlavor)))
(check-sat)
(push)
(assert (not (le x2 java.lang.StackTraceElement)))
(check-sat)
(push)
(assert (not (le x2 weka.core.Attribute)))
(check-sat)
(push)
(assert (not (le x2 sun.java2d.loops.CompositeType)))
(check-sat)
(push)
(assert (not (le x2 java.awt.AWTKeyStroke)))
(check-sat)
(push)
(assert (not (le x2 java.awt.BasicStroke)))
(check-sat)
(push)
(assert (not (le x2 java.lang.Boolean)))
(check-sat)
(push)
(assert (not (le x2 java.awt.datatransfer.DataFlavor)))
(check-sat)
(push)
(assert (not (le x2 java.net.URI)))
(check-sat)
(push)
(assert (not (le x2 weka.core.ClassDiscovery_currencysign_StringCompare)))
(check-sat)
(push)
(assert (not (le x2 java.awt.DisplayMode)))
(check-sat)
(push)
(assert (not (le x2 sun.java2d.loops.SurfaceType)))
(check-sat)
(push)
(assert (not (le x2 weka.core.Version)))
(check-sat)
(push)
(assert (not (le x2 weka.classifiers.Evaluation)))
(check-sat)
(push)
(assert (not (le x2 java.util.AbstractMap)))
(check-sat)
(push)
(assert (le x2 java.lang.Object))
(check-sat)
(push)
(assert (not (le x2 java.awt.Font)))
(check-sat)
(push)
(assert (not (le x2 java.util.Date)))
(check-sat)
(push)
(assert (not (le x2 java.lang.Character)))
(check-sat)
(push)
(assert (not (le x2 java.text.AttributedCharacterIterator_currencysign_Attribute)))
(check-sat)
(push)
(assert (not (le x2 java.awt.RenderingHints)))
(check-sat)
(push)
(assert (not (le x2 java.security.Permission)))
(check-sat)
(push)
(assert (not (le x2 java.awt.JobAttributes)))
(check-sat)
(push)
(assert (not (le x2 weka.core.AttributeLocator)))
(check-sat)
(push)
(assert (not (le x2 java.awt.RenderingHints_currencysign_Key)))
(check-sat)
(push)
(assert (not (le x2 java.nio.charset.Charset)))
(check-sat)
(push)
(assert (not (le x2 java.lang.String)))
(check-sat)
(push)
(assert (not (le x2 java.awt.geom.AffineTransform)))
(check-sat)
(push)
(assert (not (le x2 java.awt.font.TextLayout)))
(check-sat)
(push)
(assert (not (le x2 java.awt.Color)))
(check-sat)
(push)
(assert (not (le x2 java.awt.MenuShortcut)))
(check-sat)
(push)
(assert (not (le x2 weka.core.SerializedObject)))
(check-sat)
(push)
(assert (not (le x2 java.awt.font.FontRenderContext)))
(check-sat)
(push)
(assert (not (le x2 sun.java2d.pipe.Region)))
(check-sat)
(push)
(assert (not (le x2 java.awt.PageAttributes)))
(check-sat)
(push)
(assert (not (le x2 java.awt.geom.Point2D)))
(check-sat)
(push)
(assert (not (le x2 javax.xml.namespace.QName)))
(check-sat)
(push)
(assert (not (le x2 java.awt.font.TextHitInfo)))
(check-sat)
(push)
(assert (not (le x2 java.io.File)))
(check-sat)
(push)
(assert (not (le x2 apple.awt.NSPrintInfo)))
(check-sat)
(push)
(assert (not (le x2 weka.core.SelectedTag)))
(check-sat)
(push)
(assert (not (le x2 java.lang.Character_currencysign_Subset)))
(check-sat)
(push)
(assert (not (le x2 java.lang.Enum)))
(check-sat)
(push)
(assert (not (le x2 java.util.Locale)))
(check-sat)
(push)
(assert (not (le x2 java.text.DecimalFormatSymbols)))
(check-sat)
(push)
(assert (not (le x2 java.net.URL)))
(check-sat)
(pop)
(pop)
(pop)
(pop)
(pop)
(pop)
(pop)
(pop)
(pop)
(pop)
(pop)
(pop)
(pop)
(pop)
(pop)
(pop)
(pop)
(pop)
(pop)
(pop)
(pop)
(pop)
(pop)
(pop)
(pop)
(pop)
(pop)
(pop)
(pop)
(pop)
(pop)
(pop)
(pop)
(pop)
(pop)
(pop)
(pop)
(pop)
(pop)
(pop)
(pop)
(pop)
(pop)
(pop)
(pop)
(pop)
(pop)
(pop)
(pop)
(pop)
(pop)
(pop)
(pop)
(pop)
(push)
(assert (le x2 java.awt.PageAttributes))
(check-sat)
(pop)
(pop)
(push)
(assert (le x0 java.lang.String))
(check-sat)
(pop)
(push)
(assert (not (le x0 java.lang.String)))
(check-sat)
(pop)
(pop)
(pop)
(push)
(assert (not (le x0 java.lang.String)))
(check-sat)
(pop)
